
  32    4
  10   10   10   10

   0   0   0   0   0   1 2 
   3  10  10  10  10   1 3 
   9  10  10  10  10   1 4 
   4  10  10  10  10   1 5 
   8  10  10  10  10   1 6 
   5  10  10  10  10   2 31 7 
   5  10  10  10  10   1 8 
   8  10  10  10  10   1 9 
   2  10  10  10  10   1 10 
   1  10  10  10  10   1 11 
   5  10  10  10  10   1 12 
  10  10  10  10  10   2 23 13 
   6  10  10  10  10   1 14 
   7  10  10  10  10   2 30 15 
   5  10  10  10  10   2 29 16 
   4  10  10  10  10   2 28 17 
   5  10  10  10  10   1 18 
   5  10  10  10  10   1 19 
   3  10  10  10  10   1 20 
  10  10  10  10  10   1 21 
   5  10  10  10  10   1 22 
   2  10  10  10  10   2 27 24 
  10  10  10  10  10   1 24 
   4  10  10  10  10   1 25 
   1  10  10  10  10   1 26 
  10  10  10  10  10   1 32
   2  10  10  10  10   1 32
  10  10  10  10  10   1 32
   4  10  10  10  10   1 32
   9  10  10  10  10   1 32
   3  10  10  10  10   1 32
   0   0   0   0   0   0 
